#************************************************************************************
#*                   Generated by cif2cell 1.2.10 2023-05-09 9:35                   *
#*  T. Bjorkman, Comp. Phys. Commun. 182, 1183-1186 (2011). Please cite generously. *
#*                                                                                  *
#*                Data obtained from ICSD. Reference number : 627587                *
#*                                   Gd Cu2   ()                                    *
#*   Failed to get author information, Acta Crystallographica 16, 701-702 (1963)    *
#************************************************************************************

&CONTROL
    prefix='Gd2PdSi3'
    calculation = 'scf'
    pseudo_dir   = './PP'
    outdir       = './tmp'
    verbosity = 'high'
   ! wf_collect= .true.
 /
&SYSTEM
  noncolin = .true.,
  lspinorb = .false.,
  ecutwfc = 110
  ibrav = 4
  celldm(1) = 15.411881988073200
  celldm(3) = 0.50232968757425
  nat = 12
  ntyp = 6
  starting_magnetization(1) = 0.45
  starting_magnetization(2) = 0.45
  starting_magnetization(3) = 0.45
  starting_magnetization(4) = 0.45
  starting_magnetization(5) = 0.001
  starting_magnetization(6) = 0.001
  angle1(1)=Ang1_1
  angle1(2)=Ang2_1
  angle1(3)=Ang3_1
  angle1(4)=Ang4_1
  angle2(1)=Ang1_2
  angle2(2)=Ang2_2
  angle2(3)=Ang3_2
  angle2(4)=Ang4_2
  occupations='smearing'
  smearing='gaussian'
  degauss=0.01
  nr1=108
  nr2=108
  nr3=54
/
 &ELECTRONS
   electron_maxstep=1500
   diagonalization='david'
   mixing_mode = 'plain'
   conv_thr =  1.0d-5
   !mixing_beta = 0.3
 startingpot='change_pot'
/
&ions
/
&cell
   press_conv_thr = 0.001
   cell_dofree='ibrav'
/
ATOMIC_SPECIES
  Gd1  157.25000  Gd_DOJO_SR04_PBE_STANDARD.upf
  Gd2  157.25000  Gd_DOJO_SR04_PBE_STANDARD.upf
  Gd3  157.25000  Gd_DOJO_SR04_PBE_STANDARD.upf
  Gd4  157.25000  Gd_DOJO_SR04_PBE_STANDARD.upf
  Si   28.08500  Si_DOJO_SR04_PBE_STANDARD.upf
  Pd  106.42000  Pd_DOJO_SR04_PBE_STANDARD.upf
ATOMIC_POSITIONS {crystal}
Gd1            0.2500000000        0.7500000000        0.5000000000    0   0   0
Gd2            0.7500000000        0.7500000000        0.5000000000    0   0   0
Gd3            0.2500000000        0.2500000000        0.5000000000    0   0   0
Gd4            0.7500000000        0.2500000000        0.5000000000    0   0   0
Si            0.4155967550        0.5811935101        0.0000000000    1   1   0
Si            0.5811935101        0.4155967550        0.0000000000    1   1   0
Si            0.0844032450        0.9188064899        0.0000000000    1   1   0
Si            0.9188064899        0.0844032450        0.0000000000    1   1   0
Si            0.4155967550        0.0844032450        0.0000000000    1   1   0
Si            0.0844032450        0.4155967550        0.0000000000    1   1   0
Pd            0.5833333333        0.9166666667        0.0000000000    0   0   0
Pd            0.9166666667        0.5833333333        0.0000000000    0   0   0
K_POINTS {automatic}
change_K1 change_K2 change_K3 0 0  0
