&inputpp 
 outdir='./tmp'
 prefix='Gd2PdSi3'
/
