   #restart = plot
   #restart = wannierise
   write_hr = true
   write_rmn = false
   write_bvec = false
   write_u_matrices = true
   spinors = false
   spin_decomp = false
   kpath = true
   kpath_task = bands
   #kpath_bands_colour = spin
   guiding_centres= true
   use_ws_distance = false
   #translate_home_cell =true


   #num_no_guide_iter =50
   #dis_win_min=7.0
   #dis_win_max=12.0
   dis_froz_min=3.5
   dis_froz_max=12.0


   exclude_bands=1-44,113-120
   dis_num_iter = 500
   dis_conv_tol=1.0E-8
   num_wann=64
   num_bands = 68
   num_iter        = 0
   #dis_mix_ratio=0.2
   #num_guide_cycles=3
   #site_symmetry=.true.
   #symmetrize_eps = 1d-5

   begin projections
   !random
   Cu:  d
   O: p
   end projections
   bands_plot = true
bands_plot_project = 63

begin kpoint_path
A 0.0 0.0 0.0       B 0.5 0.0 0.0
B 0.5 0.0 0.0       C 0.5 0.5 0.0
C 0.5 0.5 0.0       D 0.0 0.0 0.0
D 0.0 0.0 0.0       E 0.0 0.0 0.5
end kpoint_path

begin unit_cell_cart
5.593392825834  0.0 0.0
0.0 2.822052605011   0.0
 0.000000000000    0.000000000000   12.136017694900
end unit_cell_cart

begin atoms_frac
Cu                    0.1219643354        0.250000000000        0.1522172689
Cu                    0.3780356646        0.75000000000        0.3477827311
Cu                    0.8780356646        0.75000000000        0.6522172689
Cu                    0.6219643354        0.250000000000        0.8477827311
Cu                    0.3704297841        0.75000000000        0.9950850010
Cu                    0.1295702159        0.250000000000        0.5049149990
Cu                    0.8704297841        0.75000000000        0.0049149990
Cu                    0.6295702159        0.250000000000        0.4950850010
O                    -0.1216973662        0.75000000000        0.1570634842
O                     0.3642319441        0.75000000000        0.1459577680
O                     0.1357680559        0.250000000000        0.3540422320
O                     0.6216973662        0.250000000000        0.3429365158
O                     0.6357680559        0.250000000000        0.6459577680
O                     1.1216973662        0.250000000000        0.6570634842
O                     0.3783026338        0.75000000000        0.8429365158
O                     0.8642319441        0.75000000000        0.8540422320
Li                    0.6180148125        0.250000000000        0.1768409014
Li                    0.8819851875        0.75000000000        0.3231590986
Li                    0.1180148125        0.250000000000        0.8231590986
Li                    0.3819851875        0.75000000000        0.6768409014
end atoms_frac

mp_grid  = 8 42 6

begin kpoints
  0.00000000  0.00000000  0.00000000
  0.00000000  0.00000000  0.16666667
  0.00000000  0.00000000  0.33333333
  0.00000000  0.00000000  0.50000000
  0.00000000  0.00000000  0.66666667
  0.00000000  0.00000000  0.83333333
  0.00000000  0.02380952  0.00000000
  0.00000000  0.02380952  0.16666667
  0.00000000  0.02380952  0.33333333
  0.00000000  0.02380952  0.50000000
  0.00000000  0.02380952  0.66666667
  0.00000000  0.02380952  0.83333333
  0.00000000  0.04761905  0.00000000
  0.00000000  0.04761905  0.16666667
  0.00000000  0.04761905  0.33333333
  0.00000000  0.04761905  0.50000000
  0.00000000  0.04761905  0.66666667
  0.00000000  0.04761905  0.83333333
  0.00000000  0.07142857  0.00000000
  0.00000000  0.07142857  0.16666667
  0.00000000  0.07142857  0.33333333
  0.00000000  0.07142857  0.50000000
  0.00000000  0.07142857  0.66666667
  0.00000000  0.07142857  0.83333333
  0.00000000  0.09523810  0.00000000
  0.00000000  0.09523810  0.16666667
  0.00000000  0.09523810  0.33333333
  0.00000000  0.09523810  0.50000000
  0.00000000  0.09523810  0.66666667
  0.00000000  0.09523810  0.83333333
  0.00000000  0.11904762  0.00000000
  0.00000000  0.11904762  0.16666667
  0.00000000  0.11904762  0.33333333
  0.00000000  0.11904762  0.50000000
  0.00000000  0.11904762  0.66666667
  0.00000000  0.11904762  0.83333333
  0.00000000  0.14285714  0.00000000
  0.00000000  0.14285714  0.16666667
  0.00000000  0.14285714  0.33333333
  0.00000000  0.14285714  0.50000000
  0.00000000  0.14285714  0.66666667
  0.00000000  0.14285714  0.83333333
  0.00000000  0.16666667  0.00000000
  0.00000000  0.16666667  0.16666667
  0.00000000  0.16666667  0.33333333
  0.00000000  0.16666667  0.50000000
  0.00000000  0.16666667  0.66666667
  0.00000000  0.16666667  0.83333333
  0.00000000  0.19047619  0.00000000
  0.00000000  0.19047619  0.16666667
  0.00000000  0.19047619  0.33333333
  0.00000000  0.19047619  0.50000000
  0.00000000  0.19047619  0.66666667
  0.00000000  0.19047619  0.83333333
  0.00000000  0.21428571  0.00000000
  0.00000000  0.21428571  0.16666667
  0.00000000  0.21428571  0.33333333
  0.00000000  0.21428571  0.50000000
  0.00000000  0.21428571  0.66666667
  0.00000000  0.21428571  0.83333333
  0.00000000  0.23809524  0.00000000
  0.00000000  0.23809524  0.16666667
  0.00000000  0.23809524  0.33333333
  0.00000000  0.23809524  0.50000000
  0.00000000  0.23809524  0.66666667
  0.00000000  0.23809524  0.83333333
  0.00000000  0.26190476  0.00000000
  0.00000000  0.26190476  0.16666667
  0.00000000  0.26190476  0.33333333
  0.00000000  0.26190476  0.50000000
  0.00000000  0.26190476  0.66666667
  0.00000000  0.26190476  0.83333333
  0.00000000  0.28571429  0.00000000
  0.00000000  0.28571429  0.16666667
  0.00000000  0.28571429  0.33333333
  0.00000000  0.28571429  0.50000000
  0.00000000  0.28571429  0.66666667
  0.00000000  0.28571429  0.83333333
  0.00000000  0.30952381  0.00000000
  0.00000000  0.30952381  0.16666667
  0.00000000  0.30952381  0.33333333
  0.00000000  0.30952381  0.50000000
  0.00000000  0.30952381  0.66666667
  0.00000000  0.30952381  0.83333333
  0.00000000  0.33333333  0.00000000
  0.00000000  0.33333333  0.16666667
  0.00000000  0.33333333  0.33333333
  0.00000000  0.33333333  0.50000000
  0.00000000  0.33333333  0.66666667
  0.00000000  0.33333333  0.83333333
  0.00000000  0.35714286  0.00000000
  0.00000000  0.35714286  0.16666667
  0.00000000  0.35714286  0.33333333
  0.00000000  0.35714286  0.50000000
  0.00000000  0.35714286  0.66666667
  0.00000000  0.35714286  0.83333333
  0.00000000  0.38095238  0.00000000
  0.00000000  0.38095238  0.16666667
  0.00000000  0.38095238  0.33333333
  0.00000000  0.38095238  0.50000000
  0.00000000  0.38095238  0.66666667
  0.00000000  0.38095238  0.83333333
  0.00000000  0.40476190  0.00000000
  0.00000000  0.40476190  0.16666667
  0.00000000  0.40476190  0.33333333
  0.00000000  0.40476190  0.50000000
  0.00000000  0.40476190  0.66666667
  0.00000000  0.40476190  0.83333333
  0.00000000  0.42857143  0.00000000
  0.00000000  0.42857143  0.16666667
  0.00000000  0.42857143  0.33333333
  0.00000000  0.42857143  0.50000000
  0.00000000  0.42857143  0.66666667
  0.00000000  0.42857143  0.83333333
  0.00000000  0.45238095  0.00000000
  0.00000000  0.45238095  0.16666667
  0.00000000  0.45238095  0.33333333
  0.00000000  0.45238095  0.50000000
  0.00000000  0.45238095  0.66666667
  0.00000000  0.45238095  0.83333333
  0.00000000  0.47619048  0.00000000
  0.00000000  0.47619048  0.16666667
  0.00000000  0.47619048  0.33333333
  0.00000000  0.47619048  0.50000000
  0.00000000  0.47619048  0.66666667
  0.00000000  0.47619048  0.83333333
  0.00000000  0.50000000  0.00000000
  0.00000000  0.50000000  0.16666667
  0.00000000  0.50000000  0.33333333
  0.00000000  0.50000000  0.50000000
  0.00000000  0.50000000  0.66666667
  0.00000000  0.50000000  0.83333333
  0.00000000  0.52380952  0.00000000
  0.00000000  0.52380952  0.16666667
  0.00000000  0.52380952  0.33333333
  0.00000000  0.52380952  0.50000000
  0.00000000  0.52380952  0.66666667
  0.00000000  0.52380952  0.83333333
  0.00000000  0.54761905  0.00000000
  0.00000000  0.54761905  0.16666667
  0.00000000  0.54761905  0.33333333
  0.00000000  0.54761905  0.50000000
  0.00000000  0.54761905  0.66666667
  0.00000000  0.54761905  0.83333333
  0.00000000  0.57142857  0.00000000
  0.00000000  0.57142857  0.16666667
  0.00000000  0.57142857  0.33333333
  0.00000000  0.57142857  0.50000000
  0.00000000  0.57142857  0.66666667
  0.00000000  0.57142857  0.83333333
  0.00000000  0.59523810  0.00000000
  0.00000000  0.59523810  0.16666667
  0.00000000  0.59523810  0.33333333
  0.00000000  0.59523810  0.50000000
  0.00000000  0.59523810  0.66666667
  0.00000000  0.59523810  0.83333333
  0.00000000  0.61904762  0.00000000
  0.00000000  0.61904762  0.16666667
  0.00000000  0.61904762  0.33333333
  0.00000000  0.61904762  0.50000000
  0.00000000  0.61904762  0.66666667
  0.00000000  0.61904762  0.83333333
  0.00000000  0.64285714  0.00000000
  0.00000000  0.64285714  0.16666667
  0.00000000  0.64285714  0.33333333
  0.00000000  0.64285714  0.50000000
  0.00000000  0.64285714  0.66666667
  0.00000000  0.64285714  0.83333333
  0.00000000  0.66666667  0.00000000
  0.00000000  0.66666667  0.16666667
  0.00000000  0.66666667  0.33333333
  0.00000000  0.66666667  0.50000000
  0.00000000  0.66666667  0.66666667
  0.00000000  0.66666667  0.83333333
  0.00000000  0.69047619  0.00000000
  0.00000000  0.69047619  0.16666667
  0.00000000  0.69047619  0.33333333
  0.00000000  0.69047619  0.50000000
  0.00000000  0.69047619  0.66666667
  0.00000000  0.69047619  0.83333333
  0.00000000  0.71428571  0.00000000
  0.00000000  0.71428571  0.16666667
  0.00000000  0.71428571  0.33333333
  0.00000000  0.71428571  0.50000000
  0.00000000  0.71428571  0.66666667
  0.00000000  0.71428571  0.83333333
  0.00000000  0.73809524  0.00000000
  0.00000000  0.73809524  0.16666667
  0.00000000  0.73809524  0.33333333
  0.00000000  0.73809524  0.50000000
  0.00000000  0.73809524  0.66666667
  0.00000000  0.73809524  0.83333333
  0.00000000  0.76190476  0.00000000
  0.00000000  0.76190476  0.16666667
  0.00000000  0.76190476  0.33333333
  0.00000000  0.76190476  0.50000000
  0.00000000  0.76190476  0.66666667
  0.00000000  0.76190476  0.83333333
  0.00000000  0.78571429  0.00000000
  0.00000000  0.78571429  0.16666667
  0.00000000  0.78571429  0.33333333
  0.00000000  0.78571429  0.50000000
  0.00000000  0.78571429  0.66666667
  0.00000000  0.78571429  0.83333333
  0.00000000  0.80952381  0.00000000
  0.00000000  0.80952381  0.16666667
  0.00000000  0.80952381  0.33333333
  0.00000000  0.80952381  0.50000000
  0.00000000  0.80952381  0.66666667
  0.00000000  0.80952381  0.83333333
  0.00000000  0.83333333  0.00000000
  0.00000000  0.83333333  0.16666667
  0.00000000  0.83333333  0.33333333
  0.00000000  0.83333333  0.50000000
  0.00000000  0.83333333  0.66666667
  0.00000000  0.83333333  0.83333333
  0.00000000  0.85714286  0.00000000
  0.00000000  0.85714286  0.16666667
  0.00000000  0.85714286  0.33333333
  0.00000000  0.85714286  0.50000000
  0.00000000  0.85714286  0.66666667
  0.00000000  0.85714286  0.83333333
  0.00000000  0.88095238  0.00000000
  0.00000000  0.88095238  0.16666667
  0.00000000  0.88095238  0.33333333
  0.00000000  0.88095238  0.50000000
  0.00000000  0.88095238  0.66666667
  0.00000000  0.88095238  0.83333333
  0.00000000  0.90476190  0.00000000
  0.00000000  0.90476190  0.16666667
  0.00000000  0.90476190  0.33333333
  0.00000000  0.90476190  0.50000000
  0.00000000  0.90476190  0.66666667
  0.00000000  0.90476190  0.83333333
  0.00000000  0.92857143  0.00000000
  0.00000000  0.92857143  0.16666667
  0.00000000  0.92857143  0.33333333
  0.00000000  0.92857143  0.50000000
  0.00000000  0.92857143  0.66666667
  0.00000000  0.92857143  0.83333333
  0.00000000  0.95238095  0.00000000
  0.00000000  0.95238095  0.16666667
  0.00000000  0.95238095  0.33333333
  0.00000000  0.95238095  0.50000000
  0.00000000  0.95238095  0.66666667
  0.00000000  0.95238095  0.83333333
  0.00000000  0.97619048  0.00000000
  0.00000000  0.97619048  0.16666667
  0.00000000  0.97619048  0.33333333
  0.00000000  0.97619048  0.50000000
  0.00000000  0.97619048  0.66666667
  0.00000000  0.97619048  0.83333333
  0.12500000  0.00000000  0.00000000
  0.12500000  0.00000000  0.16666667
  0.12500000  0.00000000  0.33333333
  0.12500000  0.00000000  0.50000000
  0.12500000  0.00000000  0.66666667
  0.12500000  0.00000000  0.83333333
  0.12500000  0.02380952  0.00000000
  0.12500000  0.02380952  0.16666667
  0.12500000  0.02380952  0.33333333
  0.12500000  0.02380952  0.50000000
  0.12500000  0.02380952  0.66666667
  0.12500000  0.02380952  0.83333333
  0.12500000  0.04761905  0.00000000
  0.12500000  0.04761905  0.16666667
  0.12500000  0.04761905  0.33333333
  0.12500000  0.04761905  0.50000000
  0.12500000  0.04761905  0.66666667
  0.12500000  0.04761905  0.83333333
  0.12500000  0.07142857  0.00000000
  0.12500000  0.07142857  0.16666667
  0.12500000  0.07142857  0.33333333
  0.12500000  0.07142857  0.50000000
  0.12500000  0.07142857  0.66666667
  0.12500000  0.07142857  0.83333333
  0.12500000  0.09523810  0.00000000
  0.12500000  0.09523810  0.16666667
  0.12500000  0.09523810  0.33333333
  0.12500000  0.09523810  0.50000000
  0.12500000  0.09523810  0.66666667
  0.12500000  0.09523810  0.83333333
  0.12500000  0.11904762  0.00000000
  0.12500000  0.11904762  0.16666667
  0.12500000  0.11904762  0.33333333
  0.12500000  0.11904762  0.50000000
  0.12500000  0.11904762  0.66666667
  0.12500000  0.11904762  0.83333333
  0.12500000  0.14285714  0.00000000
  0.12500000  0.14285714  0.16666667
  0.12500000  0.14285714  0.33333333
  0.12500000  0.14285714  0.50000000
  0.12500000  0.14285714  0.66666667
  0.12500000  0.14285714  0.83333333
  0.12500000  0.16666667  0.00000000
  0.12500000  0.16666667  0.16666667
  0.12500000  0.16666667  0.33333333
  0.12500000  0.16666667  0.50000000
  0.12500000  0.16666667  0.66666667
  0.12500000  0.16666667  0.83333333
  0.12500000  0.19047619  0.00000000
  0.12500000  0.19047619  0.16666667
  0.12500000  0.19047619  0.33333333
  0.12500000  0.19047619  0.50000000
  0.12500000  0.19047619  0.66666667
  0.12500000  0.19047619  0.83333333
  0.12500000  0.21428571  0.00000000
  0.12500000  0.21428571  0.16666667
  0.12500000  0.21428571  0.33333333
  0.12500000  0.21428571  0.50000000
  0.12500000  0.21428571  0.66666667
  0.12500000  0.21428571  0.83333333
  0.12500000  0.23809524  0.00000000
  0.12500000  0.23809524  0.16666667
  0.12500000  0.23809524  0.33333333
  0.12500000  0.23809524  0.50000000
  0.12500000  0.23809524  0.66666667
  0.12500000  0.23809524  0.83333333
  0.12500000  0.26190476  0.00000000
  0.12500000  0.26190476  0.16666667
  0.12500000  0.26190476  0.33333333
  0.12500000  0.26190476  0.50000000
  0.12500000  0.26190476  0.66666667
  0.12500000  0.26190476  0.83333333
  0.12500000  0.28571429  0.00000000
  0.12500000  0.28571429  0.16666667
  0.12500000  0.28571429  0.33333333
  0.12500000  0.28571429  0.50000000
  0.12500000  0.28571429  0.66666667
  0.12500000  0.28571429  0.83333333
  0.12500000  0.30952381  0.00000000
  0.12500000  0.30952381  0.16666667
  0.12500000  0.30952381  0.33333333
  0.12500000  0.30952381  0.50000000
  0.12500000  0.30952381  0.66666667
  0.12500000  0.30952381  0.83333333
  0.12500000  0.33333333  0.00000000
  0.12500000  0.33333333  0.16666667
  0.12500000  0.33333333  0.33333333
  0.12500000  0.33333333  0.50000000
  0.12500000  0.33333333  0.66666667
  0.12500000  0.33333333  0.83333333
  0.12500000  0.35714286  0.00000000
  0.12500000  0.35714286  0.16666667
  0.12500000  0.35714286  0.33333333
  0.12500000  0.35714286  0.50000000
  0.12500000  0.35714286  0.66666667
  0.12500000  0.35714286  0.83333333
  0.12500000  0.38095238  0.00000000
  0.12500000  0.38095238  0.16666667
  0.12500000  0.38095238  0.33333333
  0.12500000  0.38095238  0.50000000
  0.12500000  0.38095238  0.66666667
  0.12500000  0.38095238  0.83333333
  0.12500000  0.40476190  0.00000000
  0.12500000  0.40476190  0.16666667
  0.12500000  0.40476190  0.33333333
  0.12500000  0.40476190  0.50000000
  0.12500000  0.40476190  0.66666667
  0.12500000  0.40476190  0.83333333
  0.12500000  0.42857143  0.00000000
  0.12500000  0.42857143  0.16666667
  0.12500000  0.42857143  0.33333333
  0.12500000  0.42857143  0.50000000
  0.12500000  0.42857143  0.66666667
  0.12500000  0.42857143  0.83333333
  0.12500000  0.45238095  0.00000000
  0.12500000  0.45238095  0.16666667
  0.12500000  0.45238095  0.33333333
  0.12500000  0.45238095  0.50000000
  0.12500000  0.45238095  0.66666667
  0.12500000  0.45238095  0.83333333
  0.12500000  0.47619048  0.00000000
  0.12500000  0.47619048  0.16666667
  0.12500000  0.47619048  0.33333333
  0.12500000  0.47619048  0.50000000
  0.12500000  0.47619048  0.66666667
  0.12500000  0.47619048  0.83333333
  0.12500000  0.50000000  0.00000000
  0.12500000  0.50000000  0.16666667
  0.12500000  0.50000000  0.33333333
  0.12500000  0.50000000  0.50000000
  0.12500000  0.50000000  0.66666667
  0.12500000  0.50000000  0.83333333
  0.12500000  0.52380952  0.00000000
  0.12500000  0.52380952  0.16666667
  0.12500000  0.52380952  0.33333333
  0.12500000  0.52380952  0.50000000
  0.12500000  0.52380952  0.66666667
  0.12500000  0.52380952  0.83333333
  0.12500000  0.54761905  0.00000000
  0.12500000  0.54761905  0.16666667
  0.12500000  0.54761905  0.33333333
  0.12500000  0.54761905  0.50000000
  0.12500000  0.54761905  0.66666667
  0.12500000  0.54761905  0.83333333
  0.12500000  0.57142857  0.00000000
  0.12500000  0.57142857  0.16666667
  0.12500000  0.57142857  0.33333333
  0.12500000  0.57142857  0.50000000
  0.12500000  0.57142857  0.66666667
  0.12500000  0.57142857  0.83333333
  0.12500000  0.59523810  0.00000000
  0.12500000  0.59523810  0.16666667
  0.12500000  0.59523810  0.33333333
  0.12500000  0.59523810  0.50000000
  0.12500000  0.59523810  0.66666667
  0.12500000  0.59523810  0.83333333
  0.12500000  0.61904762  0.00000000
  0.12500000  0.61904762  0.16666667
  0.12500000  0.61904762  0.33333333
  0.12500000  0.61904762  0.50000000
  0.12500000  0.61904762  0.66666667
  0.12500000  0.61904762  0.83333333
  0.12500000  0.64285714  0.00000000
  0.12500000  0.64285714  0.16666667
  0.12500000  0.64285714  0.33333333
  0.12500000  0.64285714  0.50000000
  0.12500000  0.64285714  0.66666667
  0.12500000  0.64285714  0.83333333
  0.12500000  0.66666667  0.00000000
  0.12500000  0.66666667  0.16666667
  0.12500000  0.66666667  0.33333333
  0.12500000  0.66666667  0.50000000
  0.12500000  0.66666667  0.66666667
  0.12500000  0.66666667  0.83333333
  0.12500000  0.69047619  0.00000000
  0.12500000  0.69047619  0.16666667
  0.12500000  0.69047619  0.33333333
  0.12500000  0.69047619  0.50000000
  0.12500000  0.69047619  0.66666667
  0.12500000  0.69047619  0.83333333
  0.12500000  0.71428571  0.00000000
  0.12500000  0.71428571  0.16666667
  0.12500000  0.71428571  0.33333333
  0.12500000  0.71428571  0.50000000
  0.12500000  0.71428571  0.66666667
  0.12500000  0.71428571  0.83333333
  0.12500000  0.73809524  0.00000000
  0.12500000  0.73809524  0.16666667
  0.12500000  0.73809524  0.33333333
  0.12500000  0.73809524  0.50000000
  0.12500000  0.73809524  0.66666667
  0.12500000  0.73809524  0.83333333
  0.12500000  0.76190476  0.00000000
  0.12500000  0.76190476  0.16666667
  0.12500000  0.76190476  0.33333333
  0.12500000  0.76190476  0.50000000
  0.12500000  0.76190476  0.66666667
  0.12500000  0.76190476  0.83333333
  0.12500000  0.78571429  0.00000000
  0.12500000  0.78571429  0.16666667
  0.12500000  0.78571429  0.33333333
  0.12500000  0.78571429  0.50000000
  0.12500000  0.78571429  0.66666667
  0.12500000  0.78571429  0.83333333
  0.12500000  0.80952381  0.00000000
  0.12500000  0.80952381  0.16666667
  0.12500000  0.80952381  0.33333333
  0.12500000  0.80952381  0.50000000
  0.12500000  0.80952381  0.66666667
  0.12500000  0.80952381  0.83333333
  0.12500000  0.83333333  0.00000000
  0.12500000  0.83333333  0.16666667
  0.12500000  0.83333333  0.33333333
  0.12500000  0.83333333  0.50000000
  0.12500000  0.83333333  0.66666667
  0.12500000  0.83333333  0.83333333
  0.12500000  0.85714286  0.00000000
  0.12500000  0.85714286  0.16666667
  0.12500000  0.85714286  0.33333333
  0.12500000  0.85714286  0.50000000
  0.12500000  0.85714286  0.66666667
  0.12500000  0.85714286  0.83333333
  0.12500000  0.88095238  0.00000000
  0.12500000  0.88095238  0.16666667
  0.12500000  0.88095238  0.33333333
  0.12500000  0.88095238  0.50000000
  0.12500000  0.88095238  0.66666667
  0.12500000  0.88095238  0.83333333
  0.12500000  0.90476190  0.00000000
  0.12500000  0.90476190  0.16666667
  0.12500000  0.90476190  0.33333333
  0.12500000  0.90476190  0.50000000
  0.12500000  0.90476190  0.66666667
  0.12500000  0.90476190  0.83333333
  0.12500000  0.92857143  0.00000000
  0.12500000  0.92857143  0.16666667
  0.12500000  0.92857143  0.33333333
  0.12500000  0.92857143  0.50000000
  0.12500000  0.92857143  0.66666667
  0.12500000  0.92857143  0.83333333
  0.12500000  0.95238095  0.00000000
  0.12500000  0.95238095  0.16666667
  0.12500000  0.95238095  0.33333333
  0.12500000  0.95238095  0.50000000
  0.12500000  0.95238095  0.66666667
  0.12500000  0.95238095  0.83333333
  0.12500000  0.97619048  0.00000000
  0.12500000  0.97619048  0.16666667
  0.12500000  0.97619048  0.33333333
  0.12500000  0.97619048  0.50000000
  0.12500000  0.97619048  0.66666667
  0.12500000  0.97619048  0.83333333
  0.25000000  0.00000000  0.00000000
  0.25000000  0.00000000  0.16666667
  0.25000000  0.00000000  0.33333333
  0.25000000  0.00000000  0.50000000
  0.25000000  0.00000000  0.66666667
  0.25000000  0.00000000  0.83333333
  0.25000000  0.02380952  0.00000000
  0.25000000  0.02380952  0.16666667
  0.25000000  0.02380952  0.33333333
  0.25000000  0.02380952  0.50000000
  0.25000000  0.02380952  0.66666667
  0.25000000  0.02380952  0.83333333
  0.25000000  0.04761905  0.00000000
  0.25000000  0.04761905  0.16666667
  0.25000000  0.04761905  0.33333333
  0.25000000  0.04761905  0.50000000
  0.25000000  0.04761905  0.66666667
  0.25000000  0.04761905  0.83333333
  0.25000000  0.07142857  0.00000000
  0.25000000  0.07142857  0.16666667
  0.25000000  0.07142857  0.33333333
  0.25000000  0.07142857  0.50000000
  0.25000000  0.07142857  0.66666667
  0.25000000  0.07142857  0.83333333
  0.25000000  0.09523810  0.00000000
  0.25000000  0.09523810  0.16666667
  0.25000000  0.09523810  0.33333333
  0.25000000  0.09523810  0.50000000
  0.25000000  0.09523810  0.66666667
  0.25000000  0.09523810  0.83333333
  0.25000000  0.11904762  0.00000000
  0.25000000  0.11904762  0.16666667
  0.25000000  0.11904762  0.33333333
  0.25000000  0.11904762  0.50000000
  0.25000000  0.11904762  0.66666667
  0.25000000  0.11904762  0.83333333
  0.25000000  0.14285714  0.00000000
  0.25000000  0.14285714  0.16666667
  0.25000000  0.14285714  0.33333333
  0.25000000  0.14285714  0.50000000
  0.25000000  0.14285714  0.66666667
  0.25000000  0.14285714  0.83333333
  0.25000000  0.16666667  0.00000000
  0.25000000  0.16666667  0.16666667
  0.25000000  0.16666667  0.33333333
  0.25000000  0.16666667  0.50000000
  0.25000000  0.16666667  0.66666667
  0.25000000  0.16666667  0.83333333
  0.25000000  0.19047619  0.00000000
  0.25000000  0.19047619  0.16666667
  0.25000000  0.19047619  0.33333333
  0.25000000  0.19047619  0.50000000
  0.25000000  0.19047619  0.66666667
  0.25000000  0.19047619  0.83333333
  0.25000000  0.21428571  0.00000000
  0.25000000  0.21428571  0.16666667
  0.25000000  0.21428571  0.33333333
  0.25000000  0.21428571  0.50000000
  0.25000000  0.21428571  0.66666667
  0.25000000  0.21428571  0.83333333
  0.25000000  0.23809524  0.00000000
  0.25000000  0.23809524  0.16666667
  0.25000000  0.23809524  0.33333333
  0.25000000  0.23809524  0.50000000
  0.25000000  0.23809524  0.66666667
  0.25000000  0.23809524  0.83333333
  0.25000000  0.26190476  0.00000000
  0.25000000  0.26190476  0.16666667
  0.25000000  0.26190476  0.33333333
  0.25000000  0.26190476  0.50000000
  0.25000000  0.26190476  0.66666667
  0.25000000  0.26190476  0.83333333
  0.25000000  0.28571429  0.00000000
  0.25000000  0.28571429  0.16666667
  0.25000000  0.28571429  0.33333333
  0.25000000  0.28571429  0.50000000
  0.25000000  0.28571429  0.66666667
  0.25000000  0.28571429  0.83333333
  0.25000000  0.30952381  0.00000000
  0.25000000  0.30952381  0.16666667
  0.25000000  0.30952381  0.33333333
  0.25000000  0.30952381  0.50000000
  0.25000000  0.30952381  0.66666667
  0.25000000  0.30952381  0.83333333
  0.25000000  0.33333333  0.00000000
  0.25000000  0.33333333  0.16666667
  0.25000000  0.33333333  0.33333333
  0.25000000  0.33333333  0.50000000
  0.25000000  0.33333333  0.66666667
  0.25000000  0.33333333  0.83333333
  0.25000000  0.35714286  0.00000000
  0.25000000  0.35714286  0.16666667
  0.25000000  0.35714286  0.33333333
  0.25000000  0.35714286  0.50000000
  0.25000000  0.35714286  0.66666667
  0.25000000  0.35714286  0.83333333
  0.25000000  0.38095238  0.00000000
  0.25000000  0.38095238  0.16666667
  0.25000000  0.38095238  0.33333333
  0.25000000  0.38095238  0.50000000
  0.25000000  0.38095238  0.66666667
  0.25000000  0.38095238  0.83333333
  0.25000000  0.40476190  0.00000000
  0.25000000  0.40476190  0.16666667
  0.25000000  0.40476190  0.33333333
  0.25000000  0.40476190  0.50000000
  0.25000000  0.40476190  0.66666667
  0.25000000  0.40476190  0.83333333
  0.25000000  0.42857143  0.00000000
  0.25000000  0.42857143  0.16666667
  0.25000000  0.42857143  0.33333333
  0.25000000  0.42857143  0.50000000
  0.25000000  0.42857143  0.66666667
  0.25000000  0.42857143  0.83333333
  0.25000000  0.45238095  0.00000000
  0.25000000  0.45238095  0.16666667
  0.25000000  0.45238095  0.33333333
  0.25000000  0.45238095  0.50000000
  0.25000000  0.45238095  0.66666667
  0.25000000  0.45238095  0.83333333
  0.25000000  0.47619048  0.00000000
  0.25000000  0.47619048  0.16666667
  0.25000000  0.47619048  0.33333333
  0.25000000  0.47619048  0.50000000
  0.25000000  0.47619048  0.66666667
  0.25000000  0.47619048  0.83333333
  0.25000000  0.50000000  0.00000000
  0.25000000  0.50000000  0.16666667
  0.25000000  0.50000000  0.33333333
  0.25000000  0.50000000  0.50000000
  0.25000000  0.50000000  0.66666667
  0.25000000  0.50000000  0.83333333
  0.25000000  0.52380952  0.00000000
  0.25000000  0.52380952  0.16666667
  0.25000000  0.52380952  0.33333333
  0.25000000  0.52380952  0.50000000
  0.25000000  0.52380952  0.66666667
  0.25000000  0.52380952  0.83333333
  0.25000000  0.54761905  0.00000000
  0.25000000  0.54761905  0.16666667
  0.25000000  0.54761905  0.33333333
  0.25000000  0.54761905  0.50000000
  0.25000000  0.54761905  0.66666667
  0.25000000  0.54761905  0.83333333
  0.25000000  0.57142857  0.00000000
  0.25000000  0.57142857  0.16666667
  0.25000000  0.57142857  0.33333333
  0.25000000  0.57142857  0.50000000
  0.25000000  0.57142857  0.66666667
  0.25000000  0.57142857  0.83333333
  0.25000000  0.59523810  0.00000000
  0.25000000  0.59523810  0.16666667
  0.25000000  0.59523810  0.33333333
  0.25000000  0.59523810  0.50000000
  0.25000000  0.59523810  0.66666667
  0.25000000  0.59523810  0.83333333
  0.25000000  0.61904762  0.00000000
  0.25000000  0.61904762  0.16666667
  0.25000000  0.61904762  0.33333333
  0.25000000  0.61904762  0.50000000
  0.25000000  0.61904762  0.66666667
  0.25000000  0.61904762  0.83333333
  0.25000000  0.64285714  0.00000000
  0.25000000  0.64285714  0.16666667
  0.25000000  0.64285714  0.33333333
  0.25000000  0.64285714  0.50000000
  0.25000000  0.64285714  0.66666667
  0.25000000  0.64285714  0.83333333
  0.25000000  0.66666667  0.00000000
  0.25000000  0.66666667  0.16666667
  0.25000000  0.66666667  0.33333333
  0.25000000  0.66666667  0.50000000
  0.25000000  0.66666667  0.66666667
  0.25000000  0.66666667  0.83333333
  0.25000000  0.69047619  0.00000000
  0.25000000  0.69047619  0.16666667
  0.25000000  0.69047619  0.33333333
  0.25000000  0.69047619  0.50000000
  0.25000000  0.69047619  0.66666667
  0.25000000  0.69047619  0.83333333
  0.25000000  0.71428571  0.00000000
  0.25000000  0.71428571  0.16666667
  0.25000000  0.71428571  0.33333333
  0.25000000  0.71428571  0.50000000
  0.25000000  0.71428571  0.66666667
  0.25000000  0.71428571  0.83333333
  0.25000000  0.73809524  0.00000000
  0.25000000  0.73809524  0.16666667
  0.25000000  0.73809524  0.33333333
  0.25000000  0.73809524  0.50000000
  0.25000000  0.73809524  0.66666667
  0.25000000  0.73809524  0.83333333
  0.25000000  0.76190476  0.00000000
  0.25000000  0.76190476  0.16666667
  0.25000000  0.76190476  0.33333333
  0.25000000  0.76190476  0.50000000
  0.25000000  0.76190476  0.66666667
  0.25000000  0.76190476  0.83333333
  0.25000000  0.78571429  0.00000000
  0.25000000  0.78571429  0.16666667
  0.25000000  0.78571429  0.33333333
  0.25000000  0.78571429  0.50000000
  0.25000000  0.78571429  0.66666667
  0.25000000  0.78571429  0.83333333
  0.25000000  0.80952381  0.00000000
  0.25000000  0.80952381  0.16666667
  0.25000000  0.80952381  0.33333333
  0.25000000  0.80952381  0.50000000
  0.25000000  0.80952381  0.66666667
  0.25000000  0.80952381  0.83333333
  0.25000000  0.83333333  0.00000000
  0.25000000  0.83333333  0.16666667
  0.25000000  0.83333333  0.33333333
  0.25000000  0.83333333  0.50000000
  0.25000000  0.83333333  0.66666667
  0.25000000  0.83333333  0.83333333
  0.25000000  0.85714286  0.00000000
  0.25000000  0.85714286  0.16666667
  0.25000000  0.85714286  0.33333333
  0.25000000  0.85714286  0.50000000
  0.25000000  0.85714286  0.66666667
  0.25000000  0.85714286  0.83333333
  0.25000000  0.88095238  0.00000000
  0.25000000  0.88095238  0.16666667
  0.25000000  0.88095238  0.33333333
  0.25000000  0.88095238  0.50000000
  0.25000000  0.88095238  0.66666667
  0.25000000  0.88095238  0.83333333
  0.25000000  0.90476190  0.00000000
  0.25000000  0.90476190  0.16666667
  0.25000000  0.90476190  0.33333333
  0.25000000  0.90476190  0.50000000
  0.25000000  0.90476190  0.66666667
  0.25000000  0.90476190  0.83333333